<number of tasks>
50

<cycle time>
1000

<order strength>
0.595


<task times>
1 74
2 242
3 285
4 535
5 32
6 598
7 198
8 536
9 75
10 100
11 502
12 171
13 254
14 354
15 536
16 183
17 28
18 121
19 167
20 178
21 272
22 167
23 128
24 204
25 131
26 376
27 147
28 60
29 258
30 102
31 271
32 484
33 141
34 515
35 242
36 57
37 255
38 199
39 330
40 193
41 169
42 35
43 33
44 540
45 172
46 233
47 512
48 26
49 497
50 462

<precedence relations>
1,5
2,6
3,7
4,8
4,9
4,10
5,12
6,11
7,15
8,14
9,13
9,15
9,16
10,15
10,16
11,17
12,19
13,18
14,20
15,21
15,24
16,19
16,21
16,28
17,23
18,24
19,22
19,36
20,24
21,23
21,25
22,26
23,31
23,32
24,27
24,28
25,27
26,30
27,29
27,30
27,31
27,32
28,32
29,34
30,33
30,35
31,42
31,47
32,36
32,39
32,41
33,37
34,38
35,39
35,40
35,41
35,42
36,40
36,42
37,43
38,44
39,45
39,46
40,45
40,46
40,47
41,49
42,46
43,47
44,48
45,50
46,48
46,49
46,50

<end>
